NAME 
ROWS
 N  OBJ
 L  R0      
 E  R1      
 E  R2      
 E  R3      
 E  R4      
 E  R5      
COLUMNS
    MARKER    'MARKER'                 'INTORG'
    I0(3)     OBJ       166
    I0(3)     R0        113
    I0(3)     R2        1
    I0(3)     R5        1
    I1(4)     OBJ       -123
    I1(4)     R0        6
    I1(4)     R1        15
    I1(4)     R2        3
    I1(4)     R5        1
    MARKER    'MARKER'                 'INTEND'
    C2(3)     OBJ       -10
    C2(3)     R0        6
    C2(3)     R2        18
    C2(3)     R3        10
    C3(3)     OBJ       9
    C3(3)     R0        -5
    C3(3)     R1        9
    C3(3)     R2        -1
    C4(3)     OBJ       -5
    C4(3)     R1        17
    C4(3)     R2        3
    C4(3)     R3        15
    C5(1)     R1        1
    C6(1)     R2        1
    C7(1)     R3        1
    C8(1)     R4        1
    C9(1)     R5        1
RHS
    RHS1      R0        1.3352941176470576e+01
    RHS1      R1        62
    RHS1      R2        51
    RHS1      R3        92
    RHS1      R4        76
BOUNDS
 UP BND1      I0(3)     1
 UP BND1      I1(4)     1
ENDATA
